NAME : amz0608.113748_113748.tour
COMMENT : Cost = 113748_113748
COMMENT : Found by LKH-AMZ [Keld Helsgaun] Sun May 11 14:35:44 2025
COMMENT : TW viol.: 0 #: 0
TYPE : TOUR
DIMENSION : 155
TOUR_SECTION
58
65
134
96
120
154
71
98
78
33
102
59
135
38
123
138
43
95
139
72
141
109
42
132
82
54
89
52
2
88
75
152
57
121
10
40
6
85
115
22
118
36
153
68
66
91
27
103
112
44
9
53
114
145
84
51
14
155
45
94
70
69
151
122
16
104
143
76
39
8
92
31
47
128
4
97
101
126
133
116
55
136
20
25
79
127
87
3
28
62
129
144
19
90
61
140
35
148
24
74
111
67
113
26
146
29
46
56
18
1
117
147
30
50
80
5
7
77
48
63
12
60
86
11
110
142
49
130
64
23
83
32
21
137
41
108
106
107
17
100
99
105
124
150
149
81
73
93
125
37
15
119
34
131
13
-1
EOF
